\ Model modelmpc_s60_stochastic
\ LP format - for model browsing. Use MPS format to capture full model detail.
Maximize
  4.37893e-05 C0 + 4.37893e-05 C1 + 2.18947e-06 C11 + 2.18947e-06 C12
   + 2.18947e-06 C13 + 2.18947e-06 C14 + 2.18947e-06 C15 + 2.18947e-06 C16
   + 2.18947e-06 C17 + 2.18947e-06 C18 + 2.18947e-06 C19 + 2.18947e-06 C20
   + 2.18947e-06 C21 + 2.18947e-06 C22 + 2.18947e-06 C23 + 2.18947e-06 C24
   + 2.18947e-06 C25 + 2.18947e-06 C26 + 2.18947e-06 C27 + 2.18947e-06 C28
   + 2.18947e-06 C29 + 2.18947e-06 C30 + 2.18947e-06 C31 + 2.18947e-06 C32
   + 2.18947e-06 C33 + 2.18947e-06 C34 + 2.18947e-06 C35 + 2.18947e-06 C36
   + 2.18947e-06 C37 + 2.18947e-06 C38 + 2.18947e-06 C39 + 2.18947e-06 C40
   + 2.18947e-06 C41 + 2.18947e-06 C42 + 2.18947e-06 C43 + 2.18947e-06 C44
   + 2.18947e-06 C45 + 2.18947e-06 C46 + 2.18947e-06 C47 + 2.18947e-06 C48
   + 2.18947e-06 C49 + 2.18947e-06 C50 + 0.025 C71 + 0.025 C72 + 0.025 C73
   + 0.025 C74 + 0.025 C75 + 0.025 C76 + 0.025 C77 + 0.025 C78 + 0.025 C79
   + 0.025 C80 + 0.025 C81 + 0.025 C82 + 0.025 C83 + 0.025 C84 + 0.025 C85
   + 0.025 C86 + 0.025 C87 + 0.025 C88 + 0.025 C89 + 0.025 C90
   - 0.5 Constant
Subject To
 PV_balance_1: C0 + C1 + C2 = 5255.640122999999
 Load_balance_1: C1 + C9 = 5339.805014
 Grid_bought_balance_1: C5 - C8 - C9 = 0
 Grid_sold_balance_1: - C2 + C6 = 0
 R4: C4 <= 3700
 SOC_update_1: C3 - 6.25e-05 C4 = 0.860222324552379
 R6: C7 - C10 >= 0
 PV_balance[2020-11-09_14_00_00,0]: C11 + C31 + C51 = 6787.465403024573
 PV_balance[2020-11-09_14_00_00,1]: C12 + C32 + C52 = 4561.42664244525
 PV_balance[2020-11-09_14_00_00,2]: C13 + C33 + C53 = 3746.059872803768
 PV_balance[2020-11-09_14_00_00,3]: C14 + C34 + C54 = 4101.065340018099
 PV_balance[2020-11-09_14_00_00,4]: C15 + C35 + C55 = 5957.179172255443
 PV_balance[2020-11-09_14_00_00,5]: C16 + C36 + C56 = 6448.096883909407
 PV_balance[2020-11-09_14_00_00,6]: C17 + C37 + C57 = 9382.365343024023
 PV_balance[2020-11-09_14_00_00,7]: C18 + C38 + C58 = 8796.70110126353
 PV_balance[2020-11-09_14_00_00,8]: C19 + C39 + C59 = 7363.059058852675
 PV_balance[2020-11-09_14_00_00,9]: C20 + C40 + C60 = 5102.6409155367
 PV_balance[2020-11-09_14_00_00,10]: C21 + C41 + C61 = 7383.807397021075
 PV_balance[2020-11-09_14_00_00,11]: C22 + C42 + C62 = 8585.463595829586
 PV_balance[2020-11-09_14_00_00,12]: C23 + C43 + C63 = 5867.800507639503
 PV_balance[2020-11-09_14_00_00,13]: C24 + C44 + C64 = 3872.668139163853
 PV_balance[2020-11-09_14_00_00,14]: C25 + C45 + C65 = 4385.691857935682
 PV_balance[2020-11-09_14_00_00,15]: C26 + C46 + C66 = 6015.564171274722
 PV_balance[2020-11-09_14_00_00,16]: C27 + C47 + C67 = 6384.89481747868
 PV_balance[2020-11-09_14_00_00,17]: C28 + C48 + C68 = 4864.738018885322
 PV_balance[2020-11-09_14_00_00,18]: C29 + C49 + C69 = 7829.354727426376
 PV_balance[2020-11-09_14_00_00,19]: C30 + C50 + C70 = 5817.303436374961
 Load_balance[2020-11-09_14_00_00,0]: C31 + C191 = 6142.1923828125
 Load_balance[2020-11-09_14_00_00,1]: C32 + C192 = 6142.1923828125
 Load_balance[2020-11-09_14_00_00,2]: C33 + C193 = 6142.1923828125
 Load_balance[2020-11-09_14_00_00,3]: C34 + C194 = 6142.1923828125
 Load_balance[2020-11-09_14_00_00,4]: C35 + C195 = 6142.1923828125
 Load_balance[2020-11-09_14_00_00,5]: C36 + C196 = 6142.1923828125
 Load_balance[2020-11-09_14_00_00,6]: C37 + C197 = 6142.1923828125
 Load_balance[2020-11-09_14_00_00,7]: C38 + C198 = 6142.1923828125
 Load_balance[2020-11-09_14_00_00,8]: C39 + C199 = 6142.1923828125
 Load_balance[2020-11-09_14_00_00,9]: C40 + C200 = 6142.1923828125
 Load_balance[2020-11-09_14_00_00,10]: C41 + C201 = 6142.1923828125
 Load_balance[2020-11-09_14_00_00,11]: C42 + C202 = 6142.1923828125
 Load_balance[2020-11-09_14_00_00,12]: C43 + C203 = 6142.1923828125
 Load_balance[2020-11-09_14_00_00,13]: C44 + C204 = 6142.1923828125
 Load_balance[2020-11-09_14_00_00,14]: C45 + C205 = 6142.1923828125
 Load_balance[2020-11-09_14_00_00,15]: C46 + C206 = 6142.1923828125
 Load_balance[2020-11-09_14_00_00,16]: C47 + C207 = 6142.1923828125
 Load_balance[2020-11-09_14_00_00,17]: C48 + C208 = 6142.1923828125
 Load_balance[2020-11-09_14_00_00,18]: C49 + C209 = 6142.1923828125
 Load_balance[2020-11-09_14_00_00,19]: C50 + C210 = 6142.1923828125
 Grid_bought_balance[2020-11-09_14_00_00,0]: C111 - C171 - C191 = 0
 Grid_bought_balance[2020-11-09_14_00_00,1]: C112 - C172 - C192 = 0
 Grid_bought_balance[2020-11-09_14_00_00,2]: C113 - C173 - C193 = 0
 Grid_bought_balance[2020-11-09_14_00_00,3]: C114 - C174 - C194 = 0
 Grid_bought_balance[2020-11-09_14_00_00,4]: C115 - C175 - C195 = 0
 Grid_bought_balance[2020-11-09_14_00_00,5]: C116 - C176 - C196 = 0
 Grid_bought_balance[2020-11-09_14_00_00,6]: C117 - C177 - C197 = 0
 Grid_bought_balance[2020-11-09_14_00_00,7]: C118 - C178 - C198 = 0
 Grid_bought_balance[2020-11-09_14_00_00,8]: C119 - C179 - C199 = 0
 Grid_bought_balance[2020-11-09_14_00_00,9]: C120 - C180 - C200 = 0
 Grid_bought_balance[2020-11-09_14_00_00,10]: C121 - C181 - C201 = 0
 Grid_bought_balance[2020-11-09_14_00_00,11]: C122 - C182 - C202 = 0
 Grid_bought_balance[2020-11-09_14_00_00,12]: C123 - C183 - C203 = 0
 Grid_bought_balance[2020-11-09_14_00_00,13]: C124 - C184 - C204 = 0
 Grid_bought_balance[2020-11-09_14_00_00,14]: C125 - C185 - C205 = 0
 Grid_bought_balance[2020-11-09_14_00_00,15]: C126 - C186 - C206 = 0
 Grid_bought_balance[2020-11-09_14_00_00,16]: C127 - C187 - C207 = 0
 Grid_bought_balance[2020-11-09_14_00_00,17]: C128 - C188 - C208 = 0
 Grid_bought_balance[2020-11-09_14_00_00,18]: C129 - C189 - C209 = 0
 Grid_bought_balance[2020-11-09_14_00_00,19]: C130 - C190 - C210 = 0
 Grid_sold_balance[2020-11-09_14_00_00,0]: - C51 + C131 = 0
 Grid_sold_balance[2020-11-09_14_00_00,1]: - C52 + C132 = 0
 Grid_sold_balance[2020-11-09_14_00_00,2]: - C53 + C133 = 0
 Grid_sold_balance[2020-11-09_14_00_00,3]: - C54 + C134 = 0
 Grid_sold_balance[2020-11-09_14_00_00,4]: - C55 + C135 = 0
 Grid_sold_balance[2020-11-09_14_00_00,5]: - C56 + C136 = 0
 Grid_sold_balance[2020-11-09_14_00_00,6]: - C57 + C137 = 0
 Grid_sold_balance[2020-11-09_14_00_00,7]: - C58 + C138 = 0
 Grid_sold_balance[2020-11-09_14_00_00,8]: - C59 + C139 = 0
 Grid_sold_balance[2020-11-09_14_00_00,9]: - C60 + C140 = 0
 Grid_sold_balance[2020-11-09_14_00_00,10]: - C61 + C141 = 0
 Grid_sold_balance[2020-11-09_14_00_00,11]: - C62 + C142 = 0
 Grid_sold_balance[2020-11-09_14_00_00,12]: - C63 + C143 = 0
 Grid_sold_balance[2020-11-09_14_00_00,13]: - C64 + C144 = 0
 Grid_sold_balance[2020-11-09_14_00_00,14]: - C65 + C145 = 0
 Grid_sold_balance[2020-11-09_14_00_00,15]: - C66 + C146 = 0
 Grid_sold_balance[2020-11-09_14_00_00,16]: - C67 + C147 = 0
 Grid_sold_balance[2020-11-09_14_00_00,17]: - C68 + C148 = 0
 Grid_sold_balance[2020-11-09_14_00_00,18]: - C69 + C149 = 0
 Grid_sold_balance[2020-11-09_14_00_00,19]: - C70 + C150 = 0
 R87: C91 <= 0
 R88: C92 <= 0
 R89: C93 <= 0
 R90: C94 <= 0
 R91: C95 <= 0
 R92: C96 <= 0
 R93: C97 <= 0
 R94: C98 <= 0
 R95: C99 <= 0
 R96: C100 <= 0
 R97: C101 <= 0
 R98: C102 <= 0
 R99: C103 <= 0
 R100: C104 <= 0
 R101: C105 <= 0
 R102: C106 <= 0
 R103: C107 <= 0
 R104: C108 <= 0
 R105: C109 <= 0
 R106: C110 <= 0
 SOC_continuity[0]: - C3 + C71 = 0
 SOC_continuity[1]: - C3 + C72 = 0
 SOC_continuity[2]: - C3 + C73 = 0
 SOC_continuity[3]: - C3 + C74 = 0
 SOC_continuity[4]: - C3 + C75 = 0
 SOC_continuity[5]: - C3 + C76 = 0
 SOC_continuity[6]: - C3 + C77 = 0
 SOC_continuity[7]: - C3 + C78 = 0
 SOC_continuity[8]: - C3 + C79 = 0
 SOC_continuity[9]: - C3 + C80 = 0
 SOC_continuity[10]: - C3 + C81 = 0
 SOC_continuity[11]: - C3 + C82 = 0
 SOC_continuity[12]: - C3 + C83 = 0
 SOC_continuity[13]: - C3 + C84 = 0
 SOC_continuity[14]: - C3 + C85 = 0
 SOC_continuity[15]: - C3 + C86 = 0
 SOC_continuity[16]: - C3 + C87 = 0
 SOC_continuity[17]: - C3 + C88 = 0
 SOC_continuity[18]: - C3 + C89 = 0
 SOC_continuity[19]: - C3 + C90 = 0
 R127: C151 - C211 >= 0
 R128: C152 - C212 >= 0
 R129: C153 - C213 >= 0
 R130: C154 - C214 >= 0
 R131: C155 - C215 >= 0
 R132: C156 - C216 >= 0
 R133: C157 - C217 >= 0
 R134: C158 - C218 >= 0
 R135: C159 - C219 >= 0
 R136: C160 - C220 >= 0
 R137: C161 - C221 >= 0
 R138: C162 - C222 >= 0
 R139: C163 - C223 >= 0
 R140: C164 - C224 >= 0
 R141: C165 - C225 >= 0
 R142: C166 - C226 >= 0
 R143: C167 - C227 >= 0
 R144: C168 - C228 >= 0
 R145: C169 - C229 >= 0
 R146: C170 - C230 >= 0
 Grid_balance_1: - C4 - C6 + [ C5 * C7 + C6 * C7 ] = 84.16489100000126
 EV_balance_1: - C0 + C4 + [ C0 * C10 - C8 * C10 ] = 0
 Grid_balance[2020-11-09_14_00_00,0]: - C91 - C131 + [ C111 * C151
   + C131 * C151 ] = -645.2730202120729
 Grid_balance[2020-11-09_14_00_00,1]: - C92 - C132 + [ C112 * C152
   + C132 * C152 ] = 1580.76574036725
 Grid_balance[2020-11-09_14_00_00,2]: - C93 - C133 + [ C113 * C153
   + C133 * C153 ] = 2396.132510008732
 Grid_balance[2020-11-09_14_00_00,3]: - C94 - C134 + [ C114 * C154
   + C134 * C154 ] = 2041.127042794401
 Grid_balance[2020-11-09_14_00_00,4]: - C95 - C135 + [ C115 * C155
   + C135 * C155 ] = 185.0132105570574
 Grid_balance[2020-11-09_14_00_00,5]: - C96 - C136 + [ C116 * C156
   + C136 * C156 ] = -305.9045010969066
 Grid_balance[2020-11-09_14_00_00,6]: - C97 - C137 + [ C117 * C157
   + C137 * C157 ] = -3240.172960211523
 Grid_balance[2020-11-09_14_00_00,7]: - C98 - C138 + [ C118 * C158
   + C138 * C158 ] = -2654.50871845103
 Grid_balance[2020-11-09_14_00_00,8]: - C99 - C139 + [ C119 * C159
   + C139 * C159 ] = -1220.866676040175
 Grid_balance[2020-11-09_14_00_00,9]: - C100 - C140 + [ C120 * C160
   + C140 * C160 ] = 1039.5514672758
 Grid_balance[2020-11-09_14_00_00,10]: - C101 - C141 + [ C121 * C161
   + C141 * C161 ] = -1241.615014208575
 Grid_balance[2020-11-09_14_00_00,11]: - C102 - C142 + [ C122 * C162
   + C142 * C162 ] = -2443.271213017086
 Grid_balance[2020-11-09_14_00_00,12]: - C103 - C143 + [ C123 * C163
   + C143 * C163 ] = 274.3918751729971
 Grid_balance[2020-11-09_14_00_00,13]: - C104 - C144 + [ C124 * C164
   + C144 * C164 ] = 2269.524243648647
 Grid_balance[2020-11-09_14_00_00,14]: - C105 - C145 + [ C125 * C165
   + C145 * C165 ] = 1756.500524876818
 Grid_balance[2020-11-09_14_00_00,15]: - C106 - C146 + [ C126 * C166
   + C146 * C166 ] = 126.628211537778
 Grid_balance[2020-11-09_14_00_00,16]: - C107 - C147 + [ C127 * C167
   + C147 * C167 ] = -242.7024346661801
 Grid_balance[2020-11-09_14_00_00,17]: - C108 - C148 + [ C128 * C168
   + C148 * C168 ] = 1277.454363927178
 Grid_balance[2020-11-09_14_00_00,18]: - C109 - C149 + [ C129 * C169
   + C149 * C169 ] = -1687.162344613876
 Grid_balance[2020-11-09_14_00_00,19]: - C110 - C150 + [ C130 * C170
   + C150 * C170 ] = 324.8889464375388
 EV_balance[2020-11-09_14_00_00,0]: - C11 + C91 + [ C11 * C211
   - C171 * C211 ] = 0
 EV_balance[2020-11-09_14_00_00,1]: - C12 + C92 + [ C12 * C212
   - C172 * C212 ] = 0
 EV_balance[2020-11-09_14_00_00,2]: - C13 + C93 + [ C13 * C213
   - C173 * C213 ] = 0
 EV_balance[2020-11-09_14_00_00,3]: - C14 + C94 + [ C14 * C214
   - C174 * C214 ] = 0
 EV_balance[2020-11-09_14_00_00,4]: - C15 + C95 + [ C15 * C215
   - C175 * C215 ] = 0
 EV_balance[2020-11-09_14_00_00,5]: - C16 + C96 + [ C16 * C216
   - C176 * C216 ] = 0
 EV_balance[2020-11-09_14_00_00,6]: - C17 + C97 + [ C17 * C217
   - C177 * C217 ] = 0
 EV_balance[2020-11-09_14_00_00,7]: - C18 + C98 + [ C18 * C218
   - C178 * C218 ] = 0
 EV_balance[2020-11-09_14_00_00,8]: - C19 + C99 + [ C19 * C219
   - C179 * C219 ] = 0
 EV_balance[2020-11-09_14_00_00,9]: - C20 + C100 + [ C20 * C220
   - C180 * C220 ] = 0
 EV_balance[2020-11-09_14_00_00,10]: - C21 + C101 + [ C21 * C221
   - C181 * C221 ] = 0
 EV_balance[2020-11-09_14_00_00,11]: - C22 + C102 + [ C22 * C222
   - C182 * C222 ] = 0
 EV_balance[2020-11-09_14_00_00,12]: - C23 + C103 + [ C23 * C223
   - C183 * C223 ] = 0
 EV_balance[2020-11-09_14_00_00,13]: - C24 + C104 + [ C24 * C224
   - C184 * C224 ] = 0
 EV_balance[2020-11-09_14_00_00,14]: - C25 + C105 + [ C25 * C225
   - C185 * C225 ] = 0
 EV_balance[2020-11-09_14_00_00,15]: - C26 + C106 + [ C26 * C226
   - C186 * C226 ] = 0
 EV_balance[2020-11-09_14_00_00,16]: - C27 + C107 + [ C27 * C227
   - C187 * C227 ] = 0
 EV_balance[2020-11-09_14_00_00,17]: - C28 + C108 + [ C28 * C228
   - C188 * C228 ] = 0
 EV_balance[2020-11-09_14_00_00,18]: - C29 + C109 + [ C29 * C229
   - C189 * C229 ] = 0
 EV_balance[2020-11-09_14_00_00,19]: - C30 + C110 + [ C30 * C230
   - C190 * C230 ] = 0
Bounds
 0.2 <= C3 <= 1
 C4 <= 3700
 0.2 <= C71 <= 1
 0.2 <= C72 <= 1
 0.2 <= C73 <= 1
 0.2 <= C74 <= 1
 0.2 <= C75 <= 1
 0.2 <= C76 <= 1
 0.2 <= C77 <= 1
 0.2 <= C78 <= 1
 0.2 <= C79 <= 1
 0.2 <= C80 <= 1
 0.2 <= C81 <= 1
 0.2 <= C82 <= 1
 0.2 <= C83 <= 1
 0.2 <= C84 <= 1
 0.2 <= C85 <= 1
 0.2 <= C86 <= 1
 0.2 <= C87 <= 1
 0.2 <= C88 <= 1
 0.2 <= C89 <= 1
 0.2 <= C90 <= 1
 C91 <= 3700
 C92 <= 3700
 C93 <= 3700
 C94 <= 3700
 C95 <= 3700
 C96 <= 3700
 C97 <= 3700
 C98 <= 3700
 C99 <= 3700
 C100 <= 3700
 C101 <= 3700
 C102 <= 3700
 C103 <= 3700
 C104 <= 3700
 C105 <= 3700
 C106 <= 3700
 C107 <= 3700
 C108 <= 3700
 C109 <= 3700
 C110 <= 3700
 Constant = 1
Binaries
 C7 C10 C151 C152 C153 C154 C155 C156 C157 C158 C159 C160 C161 C162 C163
 C164 C165 C166 C167 C168 C169 C170 C211 C212 C213 C214 C215 C216 C217 C218
 C219 C220 C221 C222 C223 C224 C225 C226 C227 C228 C229 C230
End
